0 4 45 29 5 37 20 70 60 71 36 47 21 61 28 74 30 75 0
0 68 2 62 73 1 22 64 42 43 41 56 23 49 16 63 33 6 0
0 17 51 3 44 32 50 25 55 31 10 58 72 39 9 40 12 0
0 26 7 8 35 53 38 65 66 59 14 19 54 13 57 15 27 52 34 67 0
